* ENCODING=ISO-8859-1
NAME          ./convert/2AP05-9.mps
ROWS
 N  R0021             
 L  R0001             
 L  R0002             
 L  R0003             
 L  R0004             
 L  R0005             
 L  R0006             
 L  R0007             
 L  R0008             
 L  R0009             
 L  R0010             
 L  R0011             
 L  R0012             
 L  R0013             
 L  R0014             
 L  R0015             
 L  R0016             
 L  R0017             
 L  R0018             
 L  R0019             
 L  R0020             
 L  IC0               
 L  IC1               
 L  IC2               
 L  IC3               
 L  IC4               
 L  IC5               
 L  IC6               
 L  IC7               
 L  IC8               
 L  IC9               
 L  IC10              
 L  IC11              
 L  IC12              
 L  IC13              
 L  IC14              
 L  IC15              
 L  IC16              
 L  IC17              
 L  IC18              
 L  IC19              
 L  IC20              
 L  IC21              
 L  IC22              
 L  IC23              
 L  IC24              
 L  interdictionBudget
COLUMNS
    MARK0000  'MARKER'                 'INTORG'
    C0001               R0021                                   -15
    C0001               R0001                                     1
    C0001               R0002                                    -1
    C0001               R0011                                     1
    C0001               R0012                                    -1
    C0001               IC0                                       1
    C0002               R0021                                    -4
    C0002               R0001                                     1
    C0002               R0002                                    -1
    C0002               R0013                                     1
    C0002               R0014                                    -1
    C0002               IC1                                       1
    C0003               R0021                                    -1
    C0003               R0001                                     1
    C0003               R0002                                    -1
    C0003               R0015                                     1
    C0003               R0016                                    -1
    C0003               IC2                                       1
    C0004               R0021                                   -10
    C0004               R0001                                     1
    C0004               R0002                                    -1
    C0004               R0017                                     1
    C0004               R0018                                    -1
    C0004               IC3                                       1
    C0005               R0021                                   -16
    C0005               R0001                                     1
    C0005               R0002                                    -1
    C0005               R0019                                     1
    C0005               R0020                                    -1
    C0005               IC4                                       1
    C0006               R0021                                    -3
    C0006               R0003                                     1
    C0006               R0004                                    -1
    C0006               R0011                                     1
    C0006               R0012                                    -1
    C0006               IC5                                       1
    C0007               R0021                                   -19
    C0007               R0003                                     1
    C0007               R0004                                    -1
    C0007               R0013                                     1
    C0007               R0014                                    -1
    C0007               IC6                                       1
    C0008               R0021                                   -16
    C0008               R0003                                     1
    C0008               R0004                                    -1
    C0008               R0015                                     1
    C0008               R0016                                    -1
    C0008               IC7                                       1
    C0009               R0021                                   -12
    C0009               R0003                                     1
    C0009               R0004                                    -1
    C0009               R0017                                     1
    C0009               R0018                                    -1
    C0009               IC8                                       1
    C0010               R0021                                   -10
    C0010               R0003                                     1
    C0010               R0004                                    -1
    C0010               R0019                                     1
    C0010               R0020                                    -1
    C0010               IC9                                       1
    C0011               R0021                                   -14
    C0011               R0005                                     1
    C0011               R0006                                    -1
    C0011               R0011                                     1
    C0011               R0012                                    -1
    C0011               IC10                                      1
    C0012               R0021                                   -16
    C0012               R0005                                     1
    C0012               R0006                                    -1
    C0012               R0013                                     1
    C0012               R0014                                    -1
    C0012               IC11                                      1
    C0013               R0021                                   -14
    C0013               R0005                                     1
    C0013               R0006                                    -1
    C0013               R0015                                     1
    C0013               R0016                                    -1
    C0013               IC12                                      1
    C0014               R0021                                   -19
    C0014               R0005                                     1
    C0014               R0006                                    -1
    C0014               R0017                                     1
    C0014               R0018                                    -1
    C0014               IC13                                      1
    C0015               R0021                                   -15
    C0015               R0005                                     1
    C0015               R0006                                    -1
    C0015               R0019                                     1
    C0015               R0020                                    -1
    C0015               IC14                                      1
    C0016               R0021                                   -19
    C0016               R0007                                     1
    C0016               R0008                                    -1
    C0016               R0011                                     1
    C0016               R0012                                    -1
    C0016               IC15                                      1
    C0017               R0021                                    -1
    C0017               R0007                                     1
    C0017               R0008                                    -1
    C0017               R0013                                     1
    C0017               R0014                                    -1
    C0017               IC16                                      1
    C0018               R0021                                   -17
    C0018               R0007                                     1
    C0018               R0008                                    -1
    C0018               R0015                                     1
    C0018               R0016                                    -1
    C0018               IC17                                      1
    C0019               R0021                                   -14
    C0019               R0007                                     1
    C0019               R0008                                    -1
    C0019               R0017                                     1
    C0019               R0018                                    -1
    C0019               IC18                                      1
    C0020               R0021                                   -17
    C0020               R0007                                     1
    C0020               R0008                                    -1
    C0020               R0019                                     1
    C0020               R0020                                    -1
    C0020               IC19                                      1
    C0021               R0021                                   -19
    C0021               R0009                                     1
    C0021               R0010                                    -1
    C0021               R0011                                     1
    C0021               R0012                                    -1
    C0021               IC20                                      1
    C0022               R0021                                   -17
    C0022               R0009                                     1
    C0022               R0010                                    -1
    C0022               R0013                                     1
    C0022               R0014                                    -1
    C0022               IC21                                      1
    C0023               R0021                                   -12
    C0023               R0009                                     1
    C0023               R0010                                    -1
    C0023               R0015                                     1
    C0023               R0016                                    -1
    C0023               IC22                                      1
    C0024               R0021                                    -7
    C0024               R0009                                     1
    C0024               R0010                                    -1
    C0024               R0017                                     1
    C0024               R0018                                    -1
    C0024               IC23                                      1
    C0025               R0021                                   -14
    C0025               R0009                                     1
    C0025               R0010                                    -1
    C0025               R0019                                     1
    C0025               R0020                                    -1
    C0025               IC24                                      1
    x0                  IC0                                       1
    x0                  interdictionBudget                       19
    x1                  IC1                                       1
    x1                  interdictionBudget                        9
    x2                  IC2                                       1
    x2                  interdictionBudget                        6
    x3                  IC3                                       1
    x3                  interdictionBudget                        1
    x4                  IC4                                       1
    x4                  interdictionBudget                        9
    x5                  IC5                                       1
    x5                  interdictionBudget                        7
    x6                  IC6                                       1
    x6                  interdictionBudget                        7
    x7                  IC7                                       1
    x7                  interdictionBudget                        5
    x8                  IC8                                       1
    x8                  interdictionBudget                        1
    x9                  IC9                                       1
    x9                  interdictionBudget                       18
    x10                 IC10                                      1
    x10                 interdictionBudget                       13
    x11                 IC11                                      1
    x11                 interdictionBudget                       15
    x12                 IC12                                      1
    x12                 interdictionBudget                       17
    x13                 IC13                                      1
    x13                 interdictionBudget                        9
    x14                 IC14                                      1
    x14                 interdictionBudget                        8
    x15                 IC15                                      1
    x15                 interdictionBudget                        7
    x16                 IC16                                      1
    x16                 interdictionBudget                       15
    x17                 IC17                                      1
    x17                 interdictionBudget                       16
    x18                 IC18                                      1
    x18                 interdictionBudget                       14
    x19                 IC19                                      1
    x19                 interdictionBudget                        6
    x20                 IC20                                      1
    x20                 interdictionBudget                       12
    x21                 IC21                                      1
    x21                 interdictionBudget                        5
    x22                 IC22                                      1
    x22                 interdictionBudget                       18
    x23                 IC23                                      1
    x23                 interdictionBudget                        1
    x24                 IC24                                      1
    x24                 interdictionBudget                       19
    MARK0001  'MARKER'                 'INTEND'
RHS
    rhs                 R0001                                     1
    rhs                 R0002                                    -1
    rhs                 R0003                                     1
    rhs                 R0004                                    -1
    rhs                 R0005                                     1
    rhs                 R0006                                    -1
    rhs                 R0007                                     1
    rhs                 R0008                                    -1
    rhs                 R0009                                     1
    rhs                 R0010                                    -1
    rhs                 R0011                                     1
    rhs                 R0012                                    -1
    rhs                 R0013                                     1
    rhs                 R0014                                    -1
    rhs                 R0015                                     1
    rhs                 R0016                                    -1
    rhs                 R0017                                     1
    rhs                 R0018                                    -1
    rhs                 R0019                                     1
    rhs                 R0020                                     1
    rhs                 IC0                                       1
    rhs                 IC1                                       1
    rhs                 IC2                                       1
    rhs                 IC3                                       1
    rhs                 IC4                                       1
    rhs                 IC5                                       1
    rhs                 IC6                                       1
    rhs                 IC7                                       1
    rhs                 IC8                                       1
    rhs                 IC9                                       1
    rhs                 IC10                                      1
    rhs                 IC11                                      1
    rhs                 IC12                                      1
    rhs                 IC13                                      1
    rhs                 IC14                                      1
    rhs                 IC15                                      1
    rhs                 IC16                                      1
    rhs                 IC17                                      1
    rhs                 IC18                                      1
    rhs                 IC19                                      1
    rhs                 IC20                                      1
    rhs                 IC21                                      1
    rhs                 IC22                                      1
    rhs                 IC23                                      1
    rhs                 IC24                                      1
    rhs                 interdictionBudget                       18
BOUNDS
 UP bnd                 C0001                                     1
 UP bnd                 C0002                                     1
 UP bnd                 C0003                                     1
 UP bnd                 C0004                                     1
 UP bnd                 C0005                                     1
 UP bnd                 C0006                                     1
 UP bnd                 C0007                                     1
 UP bnd                 C0008                                     1
 UP bnd                 C0009                                     1
 UP bnd                 C0010                                     1
 UP bnd                 C0011                                     1
 UP bnd                 C0012                                     1
 UP bnd                 C0013                                     1
 UP bnd                 C0014                                     1
 UP bnd                 C0015                                     1
 UP bnd                 C0016                                     1
 UP bnd                 C0017                                     1
 UP bnd                 C0018                                     1
 UP bnd                 C0019                                     1
 UP bnd                 C0020                                     1
 UP bnd                 C0021                                     1
 UP bnd                 C0022                                     1
 UP bnd                 C0023                                     1
 UP bnd                 C0024                                     1
 UP bnd                 C0025                                     1
 UP bnd                 x0                                        1
 UP bnd                 x1                                        1
 UP bnd                 x2                                        1
 UP bnd                 x3                                        1
 UP bnd                 x4                                        1
 UP bnd                 x5                                        1
 UP bnd                 x6                                        1
 UP bnd                 x7                                        1
 UP bnd                 x8                                        1
 UP bnd                 x9                                        1
 UP bnd                 x10                                       1
 UP bnd                 x11                                       1
 UP bnd                 x12                                       1
 UP bnd                 x13                                       1
 UP bnd                 x14                                       1
 UP bnd                 x15                                       1
 UP bnd                 x16                                       1
 UP bnd                 x17                                       1
 UP bnd                 x18                                       1
 UP bnd                 x19                                       1
 UP bnd                 x20                                       1
 UP bnd                 x21                                       1
 UP bnd                 x22                                       1
 UP bnd                 x23                                       1
 UP bnd                 x24                                       1
ENDATA
